# Reference: M. Orsi, Comparative assessment of the ELBA coarse-grained
# model for water, Molecular Physics (2014), 112, 1566-1576

units real
atom_style full
read_data singleSPC.dat
Reading data file ...
  orthogonal box = (0 0 0) to (3.1 3.1 3.1)
  1 by 1 by 1 MPI processor grid
  reading atoms ...
  3 atoms
  scanning bonds ...
  2 = max bonds/atom
  scanning angles ...
  1 = max angles/atom
  reading bonds ...
  2 bonds
  reading angles ...
  1 angles
Finding 1-2 1-3 1-4 neighbors ...
  special bond factors lj:    0        0        0       
  special bond factors coul:  0        0        0       
     2 = max # of 1-2 neighbors
     1 = max # of 1-3 neighbors
     1 = max # of 1-4 neighbors
     2 = max # of special neighbors
  special bonds CPU = 0.000 seconds
  read_data CPU = 0.003 seconds
include forcefield.SPC.dat
# Berendsen et al, in "Intermolecular forces", p. 331 (1981)
# Charges and geometry are specified in the "data." file.

mass 1 1.00794 # H
mass 2 15.9994 # O

pair_style lj/cut/coul/long 10.0
pair_modify tail yes
kspace_style pppm 1.0e-5

pair_coeff 1 1 0.00000 0.000
pair_coeff 1 2 0.00000 0.000
pair_coeff 2 2 0.15535 3.166

bond_style harmonic
bond_coeff 1 0.0 1.0

angle_style harmonic
angle_coeff 1 0.0 109.47


replicate 10 10 10
Replication is creating a 10x10x10 = 1000 times larger system...
  orthogonal box = (0 0 0) to (31 31 31)
  1 by 1 by 1 MPI processor grid
  3000 atoms
  2000 bonds
  1000 angles
Finding 1-2 1-3 1-4 neighbors ...
  special bond factors lj:    0        0        0       
  special bond factors coul:  0        0        0       
     2 = max # of 1-2 neighbors
     1 = max # of 1-3 neighbors
     1 = max # of 1-4 neighbors
     2 = max # of special neighbors
  special bonds CPU = 0.001 seconds
  replicate CPU = 0.002 seconds

variable Nrun equal 10000
variable Nf equal ${Nrun}/10
variable Nf equal 10000/10
variable Ne equal 10
variable Nr equal ${Nf}/${Ne}
variable Nr equal 1000/${Ne}
variable Nr equal 1000/10
variable Ndump equal ${Nrun}/2
variable Ndump equal 10000/2
variable Nr_rdf equal 0.5*${Nrun}/${Ne}
variable Nr_rdf equal 0.5*10000/${Ne}
variable Nr_rdf equal 0.5*10000/10
variable t  equal 1.0

variable watMoleMass equal 18.0153 # /(g/mol)
variable nAvog equal 6.0221415e23 # Avogadro's number
variable watMoleculeMass equal (${watMoleMass}/${nAvog}) # /(g/molecule)
variable watMoleculeMass equal (18.0153/${nAvog}) 
variable watMoleculeMass equal (18.0153/6.0221415e+23) 
variable A3_in_cm3 equal 1e-24 # Angstrom^3 in cm^3
variable nAtoms equal atoms
variable nMolecules equal v_nAtoms/3

variable Text equal 298.15
variable Pext equal 1.0

group hydrogen type 1
2000 atoms in group hydrogen
group oxygen type 2
1000 atoms in group oxygen

velocity all create ${Text} 1234
velocity all create 298.15 1234

neighbor 2.0 bin
neigh_modify every 1 delay 0 check yes

timestep 2.0

fix constrain all shake 1.0e-4 100 0 b 1 a 1
Finding SHAKE clusters ...
       0 = # of size 2 clusters
       0 = # of size 3 clusters
       0 = # of size 4 clusters
    1000 = # of frozen angles
  find clusters CPU = 0.001 seconds
fix integrate all npt temp ${Text} ${Text} 100.0 iso ${Pext} ${Pext} 1000.0
fix integrate all npt temp 298.15 ${Text} 100.0 iso ${Pext} ${Pext} 1000.0
fix integrate all npt temp 298.15 298.15 100.0 iso ${Pext} ${Pext} 1000.0
fix integrate all npt temp 298.15 298.15 100.0 iso 1 ${Pext} 1000.0
fix integrate all npt temp 298.15 298.15 100.0 iso 1 1 1000.0
fix removeMomentum all momentum 1 linear 1 1 1

compute T all temp
fix TempAve all ave/time ${Ne} ${Nr} ${Nf} c_T
fix TempAve all ave/time 10 ${Nr} ${Nf} c_T
fix TempAve all ave/time 10 100 ${Nf} c_T
fix TempAve all ave/time 10 100 1000 c_T

variable P equal press
fix PressAve all ave/time ${Ne} ${Nr} ${Nf} v_P
fix PressAve all ave/time 10 ${Nr} ${Nf} v_P
fix PressAve all ave/time 10 100 ${Nf} v_P
fix PressAve all ave/time 10 100 1000 v_P

compute PE all pe pair kspace
variable PE_Mol equal c_PE/v_nMolecules
fix PEAve_Mol all ave/time ${Ne} ${Nr} ${Nf} v_PE_Mol
fix PEAve_Mol all ave/time 10 ${Nr} ${Nf} v_PE_Mol
fix PEAve_Mol all ave/time 10 100 ${Nf} v_PE_Mol
fix PEAve_Mol all ave/time 10 100 1000 v_PE_Mol

variable Dens equal v_nMolecules*${watMoleculeMass}/(vol*${A3_in_cm3})
variable Dens equal v_nMolecules*2.99151057808921e-23/(vol*${A3_in_cm3})
variable Dens equal v_nMolecules*2.99151057808921e-23/(vol*1e-24)
fix DensAve all ave/time ${Ne} ${Nr} ${Nf} v_Dens file wat.dens
fix DensAve all ave/time 10 ${Nr} ${Nf} v_Dens file wat.dens
fix DensAve all ave/time 10 100 ${Nf} v_Dens file wat.dens
fix DensAve all ave/time 10 100 1000 v_Dens file wat.dens

compute    	msd oxygen msd com yes
#compute         msd all msd com yes
variable        coe_diff equal (c_msd[4]/6/(step*dt+1.0e-6))/10e-5 #(1.0e-9 m^2/s)
fix             9 all vector 10 c_msd[4]
#variable        fitslope equal slope(f_9)/6/(10*dt)
variable        coef_diff equal fitslope[2]/10e-5

fix msd oxygen ave/time 1 1 50 v_coe_diff file wat.diff



#compute rdf_1 all rdf 1000 2 2 # oxygen-oxygen
#fix 10 all ave/time ${Ne} ${Nr_rdf} ${Nrun} c_rdf_1 file wat.rdf mode vector

thermo_style custom step temp f_TempAve press f_PressAve f_PEAve_Mol f_DensAve v_coe_diff
thermo_modify flush yes
thermo ${Nf}
thermo 1000

dump trj all atom 100 wat.lammpstrj

run ${Nrun}
run 10000
PPPM initialization ...
  using 12-bit tables for long-range coulomb (src/kspace.cpp:342)
  G vector (1/distance) = 0.30510018
  grid = 27 27 27
  stencil order = 5
  estimated absolute RMS force accuracy = 0.0028685914
  estimated relative force accuracy = 8.6386779e-06
  using double precision FFTW3
  3d grid and FFT values/proc = 39304 19683
Generated 0 of 1 mixed pair_coeff terms from geometric mixing rule
Neighbor list info ...
  update: every = 1 steps, delay = 0 steps, check = yes
  max neighbors/atom: 2000, page size: 100000
  master list distance cutoff = 12
  ghost atom cutoff = 12
  binsize = 6, bins = 6 6 6
  1 neighbor lists, perpetual/occasional/extra = 1 0 0
  (1) pair lj/cut/coul/long, perpetual
      attributes: half, newton on
      pair build: half/bin/newton
      stencil: half/bin/3d
      bin: standard
Per MPI rank memory allocation (min/avg/max) = 23.97 | 23.97 | 23.97 Mbytes
   Step          Temp        f_TempAve        Press        f_PressAve    f_PEAve_Mol     f_DensAve      v_coe_diff  
         0   447.29957      0              21746.103      0              0              0              4.2645821e-17
      1000   304.42844      370.72075     -131.34477      97.284905     -9.0050028      0.95450466     6.3682132    
      2000   300.75941      298.32121      170.97261      61.749426     -9.9577179      0.97873984     5.6229159    
      3000   294.79784      298.23097     -107.05812      36.351293     -9.9559384      0.97336505     5.119515     
      4000   305.47437      298.63528      183.12293     -27.803316     -9.915945       0.97505122     4.915482     
      5000   296.27399      297.97351     -391.48304      12.554503     -9.9380559      0.98159979     4.7570846    
      6000   293.72952      297.913        371.34101     -30.448785     -9.9613317      0.98189646     4.5998059    
      7000   288.06587      298.88602     -318.30356      7.5651879     -9.9598948      0.9814815      4.2896315    
      8000   299.38266      296.99301     -123.5175       29.710642     -9.9580011      0.97939728     4.2964641    
      9000   305.98933      299.04214      597.69089     -29.335208     -9.9618911      0.98447435     4.3278282    
     10000   289.05182      297.11156     -53.047924      16.916179     -9.94219        0.97407301     4.387792     
Loop time of 249.258 on 1 procs for 10000 steps with 3000 atoms

Performance: 6.933 ns/day, 3.462 hours/ns, 40.119 timesteps/s, 120.357 katom-step/s
99.1% CPU use with 1 MPI tasks x no OpenMP threads

MPI task timing breakdown:
Section |  min time  |  avg time  |  max time  |%varavg| %total
---------------------------------------------------------------
Pair    | 170.66     | 170.66     | 170.66     |   0.0 | 68.47
Bond    | 0.0027853  | 0.0027853  | 0.0027853  |   0.0 |  0.00
Kspace  | 26.169     | 26.169     | 26.169     |   0.0 | 10.50
Neigh   | 27.915     | 27.915     | 27.915     |   0.0 | 11.20
Comm    | 0.72917    | 0.72917    | 0.72917    |   0.0 |  0.29
Output  | 0.21122    | 0.21122    | 0.21122    |   0.0 |  0.08
Modify  | 23.359     | 23.359     | 23.359     |   0.0 |  9.37
Other   |            | 0.2064     |            |       |  0.08

Nlocal:           3000 ave        3000 max        3000 min
Histogram: 1 0 0 0 0 0 0 0 0 0
Nghost:          13473 ave       13473 max       13473 min
Histogram: 1 0 0 0 0 0 0 0 0 0
Neighs:    1.04553e+06 ave 1.04553e+06 max 1.04553e+06 min
Histogram: 1 0 0 0 0 0 0 0 0 0

Total # of neighbors = 1045531
Ave neighs/atom = 348.51033
Ave special neighs/atom = 2
Neighbor list builds = 951
Dangerous builds = 0

Total wall time: 0:09:22
